c Nemesis formula in 6CNF in accordance with DIMACS CNF format:
c    Filename: MCNC/c432/c432.tdl
c    Formula number 139
c    1266 variables (range: 2 - 1267)
c    1010 clauses
c
c p cnf 1267 1010
p cnf 423 1010
143	0
38	0
423	0
143	0
-144	0
142	0
74	-75	0
-74	75	0
142	144	0
-142	-144	0
-419	-160	0
74	142	0
-74	-142	0
419	-75	0
-419	75	0
419	-144	0
-419	144	0
75	-144	0
-75	144	0
-39	-421	0
37	-421	0
39	-422	0
-37	-422	0
-422	420	0
-421	420	0
-80	-37	0
-67	-37	0
-68	38	0
-68	-80	0
-80	-39	0
-69	-39	0
-77	-67	0
-71	-67	0
-74	-67	0
-139	-67	0
-72	68	0
-72	-139	0
-72	-74	0
-72	-77	0
-77	-69	0
-73	-69	0
-74	-69	0
-139	-69	0
76	-139	0
-76	139	0
76	-140	0
-76	140	0
76	-148	0
-76	148	0
-300	-76	0
-296	-76	0
301	296	0
-301	-296	0
15	-304	0
-15	304	0
15	-305	0
-15	305	0
53	-94	0
-53	94	0
53	-95	0
-53	95	0
53	-99	0
-53	99	0
53	-103	0
-53	103	0
53	-106	0
-53	106	0
53	-120	0
-53	120	0
53	-122	0
-53	122	0
53	-125	0
-53	125	0
53	-130	0
-53	130	0
53	-162	0
-53	162	0
53	-196	0
-53	196	0
53	-210	0
-53	210	0
53	-233	0
-53	233	0
53	-239	0
-53	239	0
53	-293	0
-53	293	0
53	-303	0
-53	303	0
53	-317	0
-53	317	0
53	-330	0
-53	330	0
53	-332	0
-53	332	0
53	-347	0
-53	347	0
53	-365	0
-53	365	0
60	53	0
252	53	0
165	53	0
171	53	0
177	171	0
-177	-171	0
105	-176	0
-105	176	0
105	-177	0
-105	177	0
-185	-105	0
-180	-105	0
-182	-105	0
173	-181	0
-173	181	0
173	-182	0
-173	182	0
173	-189	0
-173	189	0
173	-192	0
-173	192	0
34	173	0
-34	-173	0
12	-179	0
-12	179	0
12	-180	0
-12	180	0
178	-185	0
-178	185	0
178	-186	0
-178	186	0
-260	-409	0
184	-409	0
260	-410	0
-184	-410	0
-410	178	0
-409	178	0
42	-81	0
-42	81	0
42	-82	0
-42	82	0
42	-85	0
-42	85	0
42	-102	0
-42	102	0
42	-113	0
-42	113	0
42	-161	0
-42	161	0
42	-184	0
-42	184	0
42	-207	0
-42	207	0
42	-230	0
-42	230	0
42	-248	0
-42	248	0
42	-280	0
-42	280	0
42	-292	0
-42	292	0
42	-302	0
-42	302	0
42	-310	0
-42	310	0
42	-331	0
-42	331	0
42	-336	0
-42	336	0
42	-344	0
-42	344	0
42	-372	0
-42	372	0
42	-391	0
-42	391	0
275	42	0
256	42	0
43	42	0
267	42	0
334	267	0
-334	-267	0
268	-334	0
-268	334	0
268	-335	0
-268	335	0
-356	-268	0
-357	-268	0
270	-273	0
-270	273	0
270	-274	0
-270	274	0
270	-290	0
-270	290	0
270	-357	0
-270	357	0
26	270	0
-26	-270	0
7	-355	0
-7	355	0
7	-356	0
-7	356	0
-111	-43	0
-46	-43	0
41	-45	0
-41	45	0
41	-46	0
-41	46	0
-208	-41	0
-200	-41	0
193	-200	0
-193	200	0
193	-201	0
-193	201	0
203	193	0
-203	-193	0
32	-203	0
-32	203	0
32	-204	0
-32	204	0
32	-217	0
-32	217	0
5	-208	0
-5	208	0
5	-209	0
-5	209	0
44	-111	0
-44	111	0
44	-112	0
-44	112	0
-345	-44	0
-342	-44	0
337	-340	0
-337	340	0
337	-341	0
-337	341	0
337	-342	0
-337	342	0
337	-354	0
-337	354	0
9	337	0
-9	-337	0
21	-345	0
-21	345	0
21	-346	0
-21	346	0
-259	-256	0
-257	-256	0
-261	-256	0
183	-260	0
-183	260	0
183	-261	0
-183	261	0
-191	-183	0
-192	-183	0
25	-190	0
-25	190	0
25	-191	0
-25	191	0
318	257	0
311	257	0
319	257	0
389	319	0
-389	-319	0
378	-389	0
-378	389	0
378	-390	0
-378	390	0
-387	-378	0
-388	-378	0
379	-384	0
-379	384	0
379	-385	0
-379	385	0
379	-388	0
-379	388	0
379	-396	0
-379	396	0
19	379	0
-19	-379	0
17	-386	0
-17	386	0
17	-387	0
-17	387	0
313	311	0
-313	-311	0
309	-312	0
-309	312	0
309	-313	0
-309	313	0
-376	-309	0
-377	-309	0
224	-373	0
-224	373	0
224	-374	0
-224	374	0
224	-377	0
-224	377	0
370	224	0
-370	-224	0
35	-369	0
-35	369	0
35	-370	0
-35	370	0
30	-375	0
-30	375	0
30	-376	0
-30	376	0
321	318	0
-321	-318	0
84	-320	0
-84	320	0
84	-321	0
-84	321	0
-307	-84	0
-308	-84	0
87	-92	0
-87	92	0
87	-93	0
-87	93	0
87	-157	0
-87	157	0
87	-308	0
-87	308	0
28	87	0
-28	-87	0
4	-306	0
-4	306	0
4	-307	0
-4	307	0
226	-258	0
-226	258	0
226	-259	0
-226	259	0
-231	-226	0
-228	-226	0
221	-227	0
-221	227	0
221	-228	0
-221	228	0
242	221	0
-242	-221	0
6	-242	0
-6	242	0
6	-243	0
-6	243	0
6	-247	0
-6	247	0
10	-231	0
-10	231	0
10	-232	0
-10	232	0
278	275	0
-278	-275	0
276	-278	0
-276	278	0
276	-279	0
-276	279	0
-359	-276	0
-360	-276	0
281	-284	0
-281	284	0
281	-285	0
-281	285	0
281	-300	0
-281	300	0
281	-360	0
-281	360	0
27	281	0
-27	-281	0
11	-358	0
-11	358	0
11	-359	0
-11	359	0
-169	-165	0
-315	-165	0
-265	-165	0
167	-265	0
-167	265	0
167	-266	0
-167	266	0
167	-329	0
-167	329	0
-392	-167	0
-383	-167	0
-385	-167	0
18	-382	0
-18	382	0
18	-383	0
-18	383	0
381	-392	0
-381	392	0
381	-393	0
-381	393	0
-390	-397	0
391	-397	0
390	-398	0
-391	-398	0
-398	381	0
-397	381	0
166	-315	0
-166	315	0
166	-316	0
-166	316	0
-324	-166	0
-363	-166	0
-373	-166	0
22	-363	0
-22	363	0
22	-364	0
-22	364	0
223	-324	0
-223	324	0
223	-325	0
-223	325	0
-312	-403	0
310	-403	0
312	-404	0
-310	-404	0
-404	223	0
-403	223	0
86	-168	0
-86	168	0
86	-169	0
-86	169	0
-90	-86	0
-163	-86	0
-92	-86	0
23	-163	0
-23	163	0
23	-164	0
-23	164	0
83	-90	0
-83	90	0
83	-91	0
-83	91	0
-320	-415	0
85	-415	0
320	-416	0
-85	-416	0
-416	83	0
-415	83	0
170	-252	0
-170	252	0
170	-253	0
-170	253	0
237	170	0
-237	-170	0
222	-237	0
-222	237	0
222	-238	0
-222	238	0
-250	-222	0
-234	-222	0
-227	-222	0
33	-234	0
-33	234	0
33	-235	0
-33	235	0
225	-250	0
-225	250	0
225	-251	0
-225	251	0
-258	-407	0
248	-407	0
258	-408	0
-248	-408	0
-408	225	0
-407	225	0
-65	-60	0
-123	-60	0
-118	-60	0
-128	-60	0
63	-128	0
-63	128	0
63	-129	0
-63	129	0
63	-195	0
-63	195	0
-199	-63	0
-211	-63	0
-201	-63	0
29	-211	0
-29	211	0
29	-212	0
-29	212	0
40	-198	0
-40	198	0
40	-199	0
-40	199	0
-45	-417	0
81	-417	0
45	-418	0
-81	-418	0
-418	40	0
-417	40	0
62	-118	0
-62	118	0
62	-119	0
-62	119	0
62	-121	0
-62	121	0
-272	-62	0
-294	-62	0
-274	-62	0
31	-294	0
-31	294	0
31	-295	0
-31	295	0
269	-271	0
-269	271	0
269	-272	0
-269	272	0
-335	-399	0
336	-399	0
335	-400	0
-336	-400	0
-400	269	0
-399	269	0
61	-123	0
-61	123	0
61	-124	0
-61	124	0
-338	-61	0
-348	-61	0
-340	-61	0
20	-348	0
-20	348	0
20	-349	0
-20	349	0
110	-338	0
-110	338	0
110	-339	0
-110	339	0
-112	-411	0
113	-411	0
112	-412	0
-113	-412	0
-412	110	0
-411	110	0
52	-64	0
-52	64	0
52	-65	0
-52	65	0
-282	-52	0
-304	-52	0
-284	-52	0
277	-282	0
-277	282	0
277	-283	0
-277	283	0
-279	-405	0
280	-405	0
279	-406	0
-280	-406	0
-406	277	0
-405	277	0
2	-298	0
-2	298	0
2	-299	0
-2	299	0
58	-174	0
-58	174	0
58	-175	0
-58	175	0
58	-220	0
-58	220	0
58	-287	0
-58	287	0
58	-297	0
-58	297	0
58	-351	0
-58	351	0
58	-362	0
-58	362	0
58	-380	0
-58	380	0
49	58	0
59	58	0
54	58	0
-57	-54	0
-198	-57	0
-197	-57	0
215	197	0
204	197	0
202	-215	0
-202	215	0
202	-216	0
-202	216	0
14	202	0
-14	-202	0
127	126	0
-127	-126	0
-129	-127	0
-130	-127	0
195	194	0
196	194	0
-339	-56	0
-352	-56	0
-341	-56	0
8	-352	0
-8	352	0
8	-353	0
-8	353	0
-96	-59	0
-88	-59	0
-97	-59	0
323	97	0
333	323	0
-393	-333	0
-395	-333	0
-396	-333	0
3	-394	0
-3	394	0
3	-395	0
-3	395	0
-329	-328	0
-330	-328	0
-263	-262	0
-264	-262	0
79	-254	0
-79	254	0
79	-255	0
-79	255	0
79	-264	0
-79	264	0
99	79	0
-99	-79	0
266	263	0
-266	-263	0
366	322	0
369	322	0
368	366	0
-368	-366	0
1	-367	0
-1	367	0
1	-368	0
-1	368	0
-316	-401	0
317	-401	0
316	-402	0
-317	-402	0
-402	314	0
-401	314	0
-89	-88	0
-91	-88	0
-155	-88	0
-93	-88	0
16	-155	0
-16	155	0
16	-156	0
-16	156	0
-168	-413	0
95	-413	0
168	-414	0
-95	-414	0
-414	89	0
-413	89	0
107	96	0
-107	-96	0
-109	-107	0
-251	-109	0
-244	-109	0
246	244	0
247	244	0
240	-245	0
-240	245	0
240	-246	0
-240	246	0
13	240	0
-13	-240	0
253	249	0
255	249	0
238	236	0
239	236	0
-186	-108	0
-188	-108	0
-189	-108	0
36	-187	0
-36	187	0
36	-188	0
-36	188	0
-47	-49	0
48	47	0
-48	-47	0
116	48	0
-271	-116	0
-288	-116	0
-273	-116	0
24	-288	0
-24	288	0
24	-289	0
-24	289	0
-121	-115	0
-122	-115	0
117	114	0
-117	-114	0
119	117	0
120	117	0
-283	-51	0
-298	-51	0
-285	-51	0
218	74	0
219	74	0
66	-133	0
-66	133	0
66	-134	0
-66	134	0
66	-136	0
-66	136	0
66	-219	0
-66	219	0
205	66	0
-205	-66	0
-343	-205	0
350	343	0
-350	-343	0
-354	-350	0
132	-137	0
-132	137	0
132	-138	0
-132	138	0
132	-141	0
-132	141	0
132	-149	0
-132	149	0
132	-218	0
-132	218	0
291	132	0
286	132	0
-290	-286	0
147	71	0
142	71	0
150	71	0
147	73	0
144	73	0
150	73	0
145	-150	0
-145	150	0
145	-151	0
-145	151	0
153	145	0
-153	-145	0
135	-152	0
-135	152	0
135	-153	0
-135	153	0
-229	-135	0
243	229	0
98	-213	0
-98	213	0
98	-214	0
-98	214	0
98	-241	0
-98	241	0
220	98	0
-220	-98	0
-160	-142	0
100	-159	0
-100	159	0
100	-160	0
-100	160	0
-101	-100	0
172	101	0
-172	-101	0
-181	-172	0
-157	-154	0
131	-146	0
-131	146	0
131	-147	0
-131	147	0
217	131	0
206	131	0
70	-77	0
-70	77	0
70	-78	0
-70	78	0
-326	-70	0
327	326	0
-327	-326	0
-384	-327	0
-371	-80	0
-374	-80	0
361	371	0
-361	-371	0
-420	423	0
-423	420	0
-160	-219	-218	0
-419	-154	-218	0
160	158	218	0
160	154	218	0
-419	-158	-219	0
160	158	219	0
160	154	219	0
421	39	-37	0
422	-39	37	0
-420	422	421	0
37	80	67	0
-38	37	39	0
-38	-37	-39	0
39	80	69	0
-68	67	69	0
-68	-67	-69	0
-299	-297	-76	0
-358	-302	-301	0
-305	-303	-301	0
303	302	301	0
305	302	301	0
303	358	301	0
305	358	301	0
409	260	-184	0
410	-260	184	0
-178	410	409	0
268	356	357	0
43	111	46	0
41	208	200	0
44	345	342	0
183	191	192	0
378	387	388	0
309	376	377	0
84	307	308	0
226	231	228	0
276	359	360	0
397	390	-391	0
398	-390	391	0
-381	398	397	0
403	312	-310	0
404	-312	310	0
-223	404	403	0
415	320	-85	0
416	-320	85	0
-83	416	415	0
407	258	-248	0
408	-258	248	0
-225	408	407	0
417	45	-81	0
418	-45	81	0
-40	418	417	0
399	335	-336	0
400	-335	336	0
-269	400	399	0
411	112	-113	0
412	-112	113	0
-110	412	411	0
405	279	-280	0
406	-279	280	0
-277	406	405	0
-56	-55	-54	0
57	55	54	0
57	56	54	0
-126	-194	-57	0
-197	-215	-204	0
127	129	130	0
-194	-195	-196	0
125	124	55	0
-125	-124	55	0
-125	124	-55	0
125	-124	-55	0
-323	-314	-97	0
-323	-325	-97	0
-323	-322	-97	0
328	262	323	0
-333	-262	-323	0
-333	-328	-323	0
328	329	330	0
262	263	264	0
-322	-366	-369	0
401	316	-317	0
402	-316	317	0
-314	402	401	0
413	168	-95	0
414	-168	95	0
-89	414	413	0
-108	-104	-107	0
109	104	107	0
109	108	107	0
-249	-236	-109	0
-244	-246	-247	0
-249	-253	-255	0
-236	-238	-239	0
106	176	104	0
-106	-176	104	0
-106	176	-104	0
106	-176	-104	0
-51	-50	-49	0
47	50	49	0
47	51	49	0
115	114	48	0
-116	-114	-48	0
-116	-115	-48	0
115	121	122	0
-117	-119	-120	0
94	64	50	0
-94	-64	50	0
-94	64	-50	0
94	-64	-50	0
-74	-218	-219	0
-346	-344	-205	0
-349	-347	-205	0
-353	-351	-350	0
354	351	350	0
354	353	350	0
-132	-291	-286	0
-289	-287	-286	0
290	287	286	0
290	289	286	0
-355	-292	-291	0
-295	-293	-291	0
293	292	291	0
295	292	291	0
293	355	291	0
295	355	291	0
-72	71	73	0
-72	-71	-73	0
-232	-230	-135	0
-235	-233	-135	0
245	241	229	0
-243	-241	-229	0
-243	-245	-229	0
-154	-158	-142	0
160	158	142	0
160	154	142	0
-190	-102	-100	0
-179	-103	-100	0
-187	-175	-172	0
181	175	172	0
181	187	172	0
-156	-174	-154	0
157	174	154	0
157	156	154	0
-306	-161	-158	0
-164	-162	-158	0
162	161	158	0
164	161	158	0
162	306	158	0
164	306	158	0
216	214	131	0
-209	-207	-206	0
-212	-210	-206	0
210	207	206	0
212	207	206	0
210	209	206	0
212	209	206	0
-386	-331	-70	0
-382	-332	-70	0
-394	-380	-327	0
384	380	327	0
384	394	327	0
-372	-375	-80	0
-362	-367	-361	0
-365	-364	-361	0
364	367	361	0
365	367	361	0
364	362	361	0
365	362	361	0
-154	-158	-219	-218	0
419	160	219	218	0
419	160	154	158	0
296	300	297	76	0
296	300	299	76	0
105	185	180	182	0
256	259	257	261	0
-257	-318	-311	-319	0
165	169	315	265	0
167	392	383	385	0
166	324	363	373	0
86	90	163	92	0
222	250	234	227	0
63	199	211	201	0
62	272	294	274	0
61	338	348	340	0
52	282	304	284	0
-58	-49	-59	-54	0
197	198	194	57	0
197	198	126	57	0
56	339	352	341	0
59	96	88	97	0
322	325	314	97	0
333	393	395	396	0
244	251	236	109	0
244	251	249	109	0
108	186	188	189	0
116	271	288	273	0
51	283	298	285	0
343	347	344	205	0
343	349	344	205	0
343	347	346	205	0
343	349	346	205	0
-71	-147	-142	-150	0
-73	-147	-144	-150	0
229	233	230	135	0
229	235	230	135	0
229	233	232	135	0
229	235	232	135	0
101	103	102	100	0
101	179	102	100	0
101	103	190	100	0
101	179	190	100	0
-206	-217	-214	-131	0
-206	-217	-216	-131	0
326	332	331	70	0
326	382	331	70	0
326	332	386	70	0
326	382	386	70	0
374	371	375	80	0
374	371	372	80	0
67	77	71	74	139	0
69	77	73	74	139	0
-53	-60	-252	-165	-171	0
-42	-275	-256	-43	-267	0
60	65	123	118	128	0
88	89	91	155	93	0
